0000
0000
0000
0000
,
0000
0000
0000
0000
,
0000
0000
0000
0000
,
0000
0000
0000
0000
,
0000
0000
1000
0000
,
0000
0000
0001
0000
,
0000
0000
0100
0000
,
0000
0000
0010
0000
,
0000
0000
1000
1000
,
1000
1000
0100
0100
,
0100
0100
0010
0010
,
0010
0010
0001
0001
,
0001
0001
0001
0000
,
0000
0000
0000
0000
,
0000
0000
1000
0000
,
0000
0000
0000
0000
,
0000
0000
1000
0000
,
1000
0000
0001
0000
,
0001
0000
0020
0000
,
0000
0000
0130
0000
,
0000
0000
1000
0000
,
0001
0000
0010
0000
,
0001
0000
0100
0000
,
0010
0000
0001
0000
,
1000
0000
0001
0000
,
0010
0000
0001
0000
,
0100
0000
0010
0000
,
1000
0000
0001
0000
,
0010
0000
0100
0000
,
1000
0000
0001
0000
,
0100
0000
0010
0000
,
0100
0000
0001
0000
,
1000
0000
0100
0000
,
0010
0000
0001
0000
,
1000
0000
0020
0000
,
0000
0000
0130
0000
,
0000
0000
1001
0000
,
0000
0000
1000
0000
,
0000
0000
0010
0000
,
0000
0000
0100
0000
,
0000
0000
0001
0000
,
0000
0000
1000
0000
,
0000
0000
0100
0000
,
0000
0000
0010
0000
,
0000
0000
0001
0000
,
0001
0000
0100
0000
,
0100
0000
0010
0000
,
0010
0000
1000
0000
,
1000
0000
0010
0000
,
0010
0000
0100
0000
,
0100
0000
0001
0001
,
1000
1000
0010
0010
,
0200
0000
0301
0000
,
1000
0000
0100
0000
,
0010
0000
0100
0000
,
1000
0000
0001
0000
,
0100
0000
0001
0000
,
1000
0000
0100
0000
,
0010
0000
0100
0000
,
1000
0000
0001
0000
,
0100
0000
0110
0000
,
0100
0000
0001
0000
,
1000
0000
0100
0000
,
0010
0000
0100
0000
,
1000
0000
0001
0000
,
0100
0000
0010
0000
,
1000
0000
0001
0000
,
1000
0000
0100
0000
,
0100
0000
0010
0000
,
1000
0000
0100
0000
,
0100
0000
0010
0000
,
0010
0000
0001
0000
,
0001
0000
1000
0000
,
0010
0000
1000
0000
,
0001
0000
0020
0000
,
0130
0000
1000
0000
,
0001
0001
0010
0010
,
0100
0000
0000
1000
0000
0000
0000
0000
,
0001
0000
0100
0000
,
0010
0000
0100
0000
,
0001
0000
1000
0000
,
0100
0000
0010
0000
,
0100
0000
2000
0000
,
0000
0000
0000
0000
,
0000
0000
3000
0000
;

